51
100
80	2
79	2
78	2
77	1
76	2
75	3
73	2
72	1
71	1
68	1
67	4
66	1
65	3
64	2
63	4
62	2
61	1
60	2
59	1
57	1
56	2
55	1
54	1
53	1
52	1
50	2
48	3
47	1
46	4
44	2
43	1
42	1
41	2
40	1
39	3
38	5
37	1
36	1
33	2
32	3
31	1
30	1
29	1
28	3
27	1
25	2
24	4
23	3
22	4
21	2
20	2
